(set-logic QF_S)
(declare-fun var0 () String)
(declare-fun var1 () String)
(declare-fun var2 () String)
(declare-fun var3 () String)
(declare-fun var4 () String)
(declare-fun var5 () String)
(declare-fun var6 () String)
(declare-fun var7 () String)
(declare-fun var8 () String)
(declare-fun var9 () String)
(declare-fun var10 () String)
(declare-fun var11 () String)
(declare-fun var12 () String)
(declare-fun var13 () String)
(declare-fun var14 () String)
(declare-fun var15 () String)
(declare-fun var16 () String)
(declare-fun var17 () String)
(declare-fun var18 () String)
(declare-fun var19 () String)
(declare-fun var20 () String)
(declare-fun var21 () String)
(declare-fun var22 () String)
(declare-fun var23 () String)
(declare-fun var24 () String)
(declare-fun var25 () String)
(declare-fun var26 () String)
(declare-fun var27 () String)
(declare-fun var28 () String)
(declare-fun var29 () String)
(declare-fun var30 () String)
(declare-fun var31 () String)
(declare-fun var32 () String)
(declare-fun var33 () String)
(declare-fun var34 () String)
(declare-fun var35 () String)
(declare-fun var36 () String)
(declare-fun var37 () String)
(declare-fun var38 () String)
(declare-fun var39 () String)
(declare-fun var40 () String)
(declare-fun var41 () String)
(declare-fun var42 () String)
(declare-fun var43 () String)
(declare-fun var44 () String)
(declare-fun var45 () String)
(declare-fun var46 () String)
(declare-fun var47 () String)
(declare-fun var48 () String)
(declare-fun var49 () String)
(declare-fun var50 () String)
(declare-fun var51 () String)
(declare-fun var52 () String)
(declare-fun var53 () String)
(declare-fun var54 () String)
(declare-fun var55 () String)
(declare-fun var56 () String)
(declare-fun var57 () String)
(declare-fun var58 () String)
(declare-fun var59 () String)
(declare-fun var60 () String)
(assert (= var0 (Concat var1 var2)))
(assert (= var2 (Concat var3 var4)))
(assert (= var4 (Concat var5 var6)))
(assert (= var6 (Concat var7 var8)))
(assert (= var8 (Concat var9 var10)))
(assert (= var10 (Concat var11 var12)))
(assert (= var12 (Concat var13 var14)))
(assert (= var14 (Concat var15 var16)))
(assert (= var16 (Concat var17 var18)))
(assert (= var18 (Concat var19 var20)))
(assert (= var20 (Concat var21 var22)))
(assert (= var22 (Concat var23 var24)))
(assert (= var24 (Concat var25 var26)))
(assert (= var26 (Concat var27 var28)))
(assert (= var28 (Concat var29 var30)))
(assert (= var30 (Concat var31 var32)))
(assert (= var32 (Concat var33 var34)))
(assert (= var34 (Concat var35 var36)))
(assert (= var36 (Concat var37 var38)))
(assert (= var38 (Concat var39 var40)))
(assert (= var40 (Concat var41 var42)))
(assert (= var42 (Concat var43 var44)))
(assert (= var44 (Concat var45 var46)))
(assert (= var46 (Concat var47 var48)))
(assert (= var48 (Concat var49 var50)))
(assert (= var50 (Concat var51 var52)))
(assert (= var52 (Concat var53 var54)))
(assert (= var54 (Concat var55 var56)))
(assert (= var56 (Concat var57 var58)))
(assert (= var58 (Concat var59 var60)))
(assert (= var0 "solution"))
(assert (= "J" (CharAt var0 879)))
(assert (= "P" (CharAt var58 903)))
(assert (= "I" (CharAt var37 791)))
(assert (= "2" (CharAt var58 952)))
(assert (= "x" (CharAt var9 993)))
(assert (= "Q" (CharAt var36 128)))
(assert (= "s" (CharAt var57 237)))
(assert (= "G" (CharAt var30 905)))
(assert (= "m" (CharAt var56 15)))
(assert (= "R" (CharAt var12 250)))
(assert (= "K" (CharAt var33 309)))
(assert (= "_" (CharAt var53 893)))
(assert (= "|" (CharAt var28 678)))
(assert (= "(" (CharAt var7 402)))
(assert (= "Q" (CharAt var24 916)))
(assert (= "(" (CharAt var47 146)))
(assert (= "m" (CharAt var26 5)))
(assert (= "M" (CharAt var19 800)))
(assert (= "2" (CharAt var54 390)))
(assert (= "m" (CharAt var24 815)))
(assert (= "$" (CharAt var36 564)))
(assert (= "l" (CharAt var20 926)))
(assert (= "o" (CharAt var37 589)))
(assert (= "F" (CharAt var21 200)))
(assert (= "P" (CharAt var26 487)))
(assert (= "q" (CharAt var46 28)))
(assert (= "(" (CharAt var9 76)))
(assert (= "[" (CharAt var4 909)))
(assert (= "B" (CharAt var21 362)))
(assert (= ">" (CharAt var27 509)))
(assert (= "e" (CharAt var38 591)))
(assert (= "5" (CharAt var11 529)))
(assert (= "7" (CharAt var59 983)))
(assert (= "L" (CharAt var23 485)))
(assert (= "r" (CharAt var49 60)))
(assert (= "s" (CharAt var60 620)))
(assert (= "[" (CharAt var44 361)))
(assert (= "p" (CharAt var36 998)))
(assert (= "9" (CharAt var59 285)))
(assert (= "g" (CharAt var26 309)))
(assert (= "l" (CharAt var46 978)))
(assert (= "w" (CharAt var40 904)))
(assert (= "x" (CharAt var24 553)))
(assert (= "y" (CharAt var20 319)))
(assert (= "W" (CharAt var35 954)))
(assert (= "m" (CharAt var30 916)))
(assert (= "B" (CharAt var39 543)))
(assert (= "^" (CharAt var43 68)))
(assert (= "h" (CharAt var40 739)))
(assert (= "K" (CharAt var10 784)))
(assert (= "F" (CharAt var13 194)))
(assert (= "`" (CharAt var51 645)))
(assert (= ">" (CharAt var11 201)))
(assert (= "=" (CharAt var47 753)))
(assert (= "c" (CharAt var23 891)))
(assert (= "{" (CharAt var16 958)))
(assert (= "F" (CharAt var22 45)))
(assert (= "F" (CharAt var56 466)))
(assert (= ";" (CharAt var13 725)))
(assert (= "O" (CharAt var21 203)))
(assert (= "R" (CharAt var49 800)))
(assert (= "h" (CharAt var59 901)))
(assert (= "@" (CharAt var0 552)))
(assert (= "." (CharAt var55 400)))
(assert (= "A" (CharAt var44 18)))
(assert (= "X" (CharAt var57 573)))
(assert (= "e" (CharAt var49 190)))
(assert (= "," (CharAt var15 913)))
(assert (= "C" (CharAt var19 119)))
(assert (= "5" (CharAt var14 670)))
(assert (= "q" (CharAt var0 884)))
(assert (= "!" (CharAt var53 32)))
(assert (= "w" (CharAt var59 549)))
(assert (= "W" (CharAt var48 919)))
(assert (= "p" (CharAt var0 245)))
(assert (= "M" (CharAt var2 573)))
(assert (= "4" (CharAt var14 674)))
(assert (= "z" (CharAt var53 606)))
(assert (= "m" (CharAt var8 102)))
(assert (= "n" (CharAt var42 568)))
(assert (= "1" (CharAt var30 798)))
(assert (= "/" (CharAt var1 90)))
(assert (= "[" (CharAt var15 620)))
(assert (= "g" (CharAt var55 928)))
(assert (= "h" (CharAt var48 461)))
(assert (= "\"" (CharAt var33 304)))
(assert (= "w" (CharAt var50 593)))
(assert (= "?" (CharAt var23 381)))
(assert (= "w" (CharAt var41 24)))
(assert (= "d" (CharAt var1 379)))
(assert (= "S" (CharAt var10 303)))
(assert (= "A" (CharAt var41 696)))
(assert (= "2" (CharAt var20 943)))
(assert (= "1" (CharAt var16 445)))
(assert (= ">" (CharAt var40 985)))
(assert (= "6" (CharAt var4 298)))
(assert (= "8" (CharAt var51 783)))
(assert (= "z" (CharAt var27 524)))
(assert (= "_" (CharAt var50 751)))
(assert (= "b" (CharAt var37 351)))
(assert (= "?" (CharAt var47 85)))
(assert (= "%" (CharAt var60 826)))
(assert (= "|" (CharAt var9 506)))
(assert (= "z" (CharAt var26 537)))
(assert (= "%" (CharAt var36 484)))
(assert (= "Q" (CharAt var3 60)))
(assert (= "R" (CharAt var3 306)))
(assert (= "`" (CharAt var44 631)))
(assert (= "2" (CharAt var26 602)))
(assert (= "e" (CharAt var13 217)))
(assert (= "L" (CharAt var52 519)))
(assert (= "L" (CharAt var41 624)))
(assert (= "~" (CharAt var48 807)))
(assert (= "|" (CharAt var44 483)))
(assert (= "2" (CharAt var42 867)))
(assert (= "[" (CharAt var29 368)))
(assert (= "J" (CharAt var28 646)))
(assert (= "8" (CharAt var52 825)))
(assert (= "I" (CharAt var20 633)))
(assert (= "$" (CharAt var11 548)))
(assert (= "3" (CharAt var20 579)))
(assert (= "V" (CharAt var54 264)))
(assert (= "E" (CharAt var3 495)))
(assert (= ";" (CharAt var32 841)))
(assert (= "L" (CharAt var15 77)))
(assert (= "." (CharAt var1 634)))
(assert (= "f" (CharAt var42 46)))
(assert (= "S" (CharAt var2 400)))
(assert (= "9" (CharAt var51 845)))
(assert (= "2" (CharAt var58 302)))
(assert (= "T" (CharAt var2 470)))
(assert (= "+" (CharAt var38 714)))
(assert (= "i" (CharAt var44 947)))
(assert (= "j" (CharAt var31 477)))
(assert (= ":" (CharAt var44 918)))
(assert (= ";" (CharAt var36 645)))
(assert (= "+" (CharAt var15 876)))
(assert (= "z" (CharAt var25 531)))
(assert (= "z" (CharAt var44 187)))
(assert (= "c" (CharAt var9 569)))
(assert (= "m" (CharAt var41 941)))
(assert (= "`" (CharAt var22 121)))
(assert (= "'" (CharAt var35 619)))
(assert (= "p" (CharAt var50 951)))
(assert (= "K" (CharAt var56 624)))
(assert (= "x" (CharAt var56 288)))
(assert (= "?" (CharAt var2 696)))
(assert (= "k" (CharAt var39 515)))
(assert (= "+" (CharAt var51 955)))
(assert (= "t" (CharAt var11 62)))
(assert (= "C" (CharAt var16 573)))
(assert (= "4" (CharAt var14 724)))
(assert (= "=" (CharAt var24 859)))
(assert (= "0" (CharAt var20 191)))
(assert (= ">" (CharAt var12 391)))
(assert (= "S" (CharAt var53 72)))
(assert (= ")" (CharAt var17 573)))
(assert (= "{" (CharAt var26 899)))
(assert (= "{" (CharAt var27 127)))
(assert (= "#" (CharAt var32 828)))
(assert (= "K" (CharAt var1 132)))
(assert (= "i" (CharAt var26 933)))
(assert (= "~" (CharAt var48 231)))
(assert (= "{" (CharAt var19 536)))
(assert (= "A" (CharAt var40 75)))
(assert (= "?" (CharAt var29 120)))
(assert (= "9" (CharAt var28 453)))
(assert (= "]" (CharAt var39 49)))
(assert (= "e" (CharAt var29 343)))
(assert (= "b" (CharAt var49 667)))
(assert (= "." (CharAt var51 936)))
(assert (= "Z" (CharAt var43 431)))
(assert (= "%" (CharAt var48 143)))
(assert (= "*" (CharAt var53 701)))
(assert (= "V" (CharAt var4 78)))
(assert (= "S" (CharAt var26 490)))
(assert (= "g" (CharAt var36 887)))
(assert (= "'" (CharAt var12 588)))
(assert (= "r" (CharAt var25 611)))
(assert (= "B" (CharAt var34 77)))
(assert (= "z" (CharAt var11 774)))
(assert (= "," (CharAt var38 419)))
(assert (= "6" (CharAt var45 846)))
(assert (= "q" (CharAt var7 620)))
(assert (= "&" (CharAt var43 838)))
(assert (= "(" (CharAt var41 704)))
(assert (= "9" (CharAt var52 871)))
(assert (= "X" (CharAt var28 154)))
(assert (= ">" (CharAt var58 475)))
(assert (= "Z" (CharAt var59 231)))
(assert (= "d" (CharAt var1 630)))
(assert (= "8" (CharAt var2 973)))
(assert (= "#" (CharAt var31 800)))
(assert (= "W" (CharAt var56 39)))
(assert (= "l" (CharAt var37 440)))
(assert (= "G" (CharAt var19 609)))
(assert (= "m" (CharAt var14 187)))
(assert (= "M" (CharAt var10 165)))
(assert (= "G" (CharAt var47 369)))
(assert (= "O" (CharAt var43 87)))
(assert (= "c" (CharAt var21 785)))
(assert (= "_" (CharAt var8 785)))
(assert (= "I" (CharAt var4 832)))
(assert (= "F" (CharAt var33 691)))
(assert (= "Z" (CharAt var33 761)))
(assert (= "{" (CharAt var25 460)))
(assert (= "," (CharAt var1 533)))
(assert (= "<" (CharAt var6 80)))
(assert (= "_" (CharAt var21 206)))
(assert (= "6" (CharAt var55 831)))
(assert (= "J" (CharAt var46 13)))
(assert (= "G" (CharAt var10 712)))
(assert (= "h" (CharAt var49 331)))
(assert (= "<" (CharAt var41 429)))
(assert (= "^" (CharAt var24 120)))
(assert (= "k" (CharAt var53 479)))
(assert (= "<" (CharAt var55 153)))
(assert (= "5" (CharAt var32 889)))
(assert (= "b" (CharAt var54 603)))
(assert (= "v" (CharAt var12 642)))
(assert (= "s" (CharAt var10 918)))
(assert (= "?" (CharAt var60 834)))
(assert (= "`" (CharAt var33 563)))
(assert (= "I" (CharAt var54 48)))
(assert (= "i" (CharAt var49 34)))
(assert (= "r" (CharAt var34 349)))
(assert (= "8" (CharAt var9 463)))
(assert (= "-" (CharAt var18 602)))
(assert (= "." (CharAt var43 669)))
(assert (= "9" (CharAt var29 983)))
(assert (= "@" (CharAt var20 230)))
(assert (= "9" (CharAt var28 872)))
(assert (= "q" (CharAt var14 551)))
(assert (= "&" (CharAt var33 251)))
(assert (= "y" (CharAt var2 142)))
(assert (= "1" (CharAt var25 810)))
(assert (= "X" (CharAt var58 811)))
(assert (= "\"" (CharAt var7 601)))
(assert (= "w" (CharAt var59 87)))
(assert (= "'" (CharAt var51 446)))
(assert (= "w" (CharAt var60 413)))
(assert (= "X" (CharAt var50 720)))
(assert (= "U" (CharAt var41 91)))
(assert (= "X" (CharAt var39 427)))
(assert (= "7" (CharAt var2 295)))
(assert (= "g" (CharAt var4 860)))
(assert (= "T" (CharAt var43 986)))
(assert (= "p" (CharAt var17 337)))
(assert (= "j" (CharAt var20 732)))
(assert (= "8" (CharAt var26 974)))
(assert (= "%" (CharAt var49 538)))
(assert (= "s" (CharAt var52 556)))
(assert (= "#" (CharAt var27 668)))
(assert (= "+" (CharAt var46 67)))
(assert (= "k" (CharAt var35 816)))
(assert (= "a" (CharAt var8 59)))
(assert (= "O" (CharAt var26 194)))
(assert (= "m" (CharAt var52 434)))
(assert (= "$" (CharAt var7 19)))
(assert (= "u" (CharAt var22 704)))
(assert (= "D" (CharAt var55 424)))
(assert (= "C" (CharAt var42 198)))
(assert (= "8" (CharAt var34 214)))
(assert (= "`" (CharAt var16 938)))
(assert (= "H" (CharAt var0 823)))
(assert (= "V" (CharAt var34 369)))
(assert (= "s" (CharAt var22 251)))
(assert (= "w" (CharAt var17 160)))
(assert (= "q" (CharAt var22 804)))
(assert (= "q" (CharAt var5 151)))
(assert (= "~" (CharAt var37 672)))
(assert (= "*" (CharAt var58 824)))
(assert (= "{" (CharAt var43 998)))
(assert (= "v" (CharAt var16 218)))
(assert (= "1" (CharAt var15 796)))
(assert (= "}" (CharAt var19 606)))
(assert (= "m" (CharAt var3 802)))
(assert (= "(" (CharAt var36 330)))
(assert (= "R" (CharAt var13 462)))
(assert (= "{" (CharAt var3 708)))
(assert (= "6" (CharAt var27 952)))
(assert (= "]" (CharAt var57 293)))
(assert (= "N" (CharAt var55 505)))
(assert (= "1" (CharAt var3 735)))
(assert (= "E" (CharAt var39 661)))
(assert (= "R" (CharAt var50 639)))
(assert (= "b" (CharAt var29 671)))
(assert (= "*" (CharAt var4 749)))
(assert (= "C" (CharAt var23 441)))
(assert (= "4" (CharAt var48 157)))
(assert (= "P" (CharAt var36 551)))
(assert (= "." (CharAt var13 894)))
(assert (= "M" (CharAt var53 732)))
(assert (= "H" (CharAt var51 352)))
(assert (= "^" (CharAt var9 414)))
(assert (= "j" (CharAt var29 367)))
(assert (= "X" (CharAt var4 941)))
(assert (= "7" (CharAt var57 779)))
(assert (= "." (CharAt var17 535)))
(assert (= "s" (CharAt var29 842)))
(assert (= "0" (CharAt var11 801)))
(assert (= "X" (CharAt var29 286)))
(assert (= "0" (CharAt var49 886)))
(assert (= "e" (CharAt var15 182)))
(assert (= "q" (CharAt var12 46)))
(assert (= ")" (CharAt var0 123)))
(assert (= "$" (CharAt var46 409)))
(assert (= "%" (CharAt var55 85)))
(assert (= "'" (CharAt var25 615)))
(assert (= "z" (CharAt var9 267)))
(assert (= "G" (CharAt var15 69)))
(assert (= "5" (CharAt var60 629)))
(assert (= "e" (CharAt var9 41)))
(assert (= "m" (CharAt var12 215)))
(assert (= "Q" (CharAt var58 483)))
(assert (= "i" (CharAt var15 411)))
(assert (= "\"" (CharAt var40 435)))
(assert (= "A" (CharAt var52 68)))
(assert (= "$" (CharAt var43 542)))
(assert (= "k" (CharAt var33 639)))
(assert (= "A" (CharAt var17 968)))
(assert (= "=" (CharAt var26 201)))
(assert (= "y" (CharAt var55 601)))
(assert (= "Q" (CharAt var7 663)))
(assert (= "/" (CharAt var47 100)))
(assert (= "." (CharAt var48 731)))
(assert (= "!" (CharAt var25 747)))
(assert (= "s" (CharAt var59 204)))
(assert (= "z" (CharAt var36 432)))
(assert (= "#" (CharAt var19 654)))
(assert (= "d" (CharAt var6 144)))
(assert (= "c" (CharAt var0 972)))
(assert (= "f" (CharAt var43 751)))
(assert (= "i" (CharAt var16 953)))
(assert (= ")" (CharAt var13 348)))
(assert (= "G" (CharAt var54 951)))
(assert (= ">" (CharAt var34 770)))
(assert (= "c" (CharAt var52 926)))
(assert (= "E" (CharAt var56 727)))
(assert (= "1" (CharAt var38 908)))
(assert (= "X" (CharAt var3 19)))
(assert (= "A" (CharAt var22 338)))
(assert (= "c" (CharAt var19 741)))
(assert (= "#" (CharAt var46 827)))
(assert (= "|" (CharAt var33 124)))
(assert (= "y" (CharAt var2 182)))
(assert (= "2" (CharAt var52 123)))
(assert (= "t" (CharAt var28 411)))
(assert (= "T" (CharAt var8 981)))
(assert (= "_" (CharAt var57 593)))
(assert (= "$" (CharAt var22 897)))
(assert (= "h" (CharAt var56 145)))
(assert (= "m" (CharAt var8 26)))
(assert (= "\\" (CharAt var52 765)))
(assert (= "Y" (CharAt var28 918)))
(assert (= "p" (CharAt var16 253)))
(assert (= "P" (CharAt var16 860)))
(assert (= "J" (CharAt var2 888)))
(assert (= "v" (CharAt var10 533)))
(assert (= "G" (CharAt var30 978)))
(assert (= "Q" (CharAt var5 139)))
(assert (= "n" (CharAt var14 50)))
(assert (= "|" (CharAt var46 843)))
(assert (= "F" (CharAt var44 300)))
(assert (= "1" (CharAt var18 383)))
(assert (= ")" (CharAt var14 495)))
(assert (= "l" (CharAt var26 565)))
(assert (= "." (CharAt var4 650)))
(assert (= "k" (CharAt var48 985)))
(assert (= "y" (CharAt var10 660)))
(assert (= "r" (CharAt var21 359)))
(assert (= "y" (CharAt var7 816)))
(assert (= "T" (CharAt var27 531)))
(assert (= "J" (CharAt var1 742)))
(assert (= "t" (CharAt var56 275)))
(assert (= "N" (CharAt var47 48)))
(assert (= "u" (CharAt var50 900)))
(assert (= "$" (CharAt var57 911)))
(assert (= "6" (CharAt var3 516)))
(assert (= "T" (CharAt var39 840)))
(assert (= "[" (CharAt var46 516)))
(assert (= "8" (CharAt var32 862)))
(assert (= "O" (CharAt var31 462)))
(assert (= ";" (CharAt var59 859)))
(assert (= "6" (CharAt var38 532)))
(assert (= "-" (CharAt var27 302)))
(assert (= "l" (CharAt var4 660)))
(assert (= "M" (CharAt var8 514)))
(assert (= "M" (CharAt var53 317)))
(assert (= "A" (CharAt var26 616)))
(assert (= "\"" (CharAt var38 140)))
(assert (= "5" (CharAt var35 287)))
(assert (= "+" (CharAt var27 887)))
(assert (= "}" (CharAt var8 983)))
(assert (= "K" (CharAt var44 507)))
(assert (= "R" (CharAt var31 804)))
(assert (= "{" (CharAt var56 412)))
(assert (= "B" (CharAt var1 108)))
(assert (= "l" (CharAt var47 144)))
(assert (= "$" (CharAt var53 621)))
(assert (= "y" (CharAt var55 179)))
(assert (= "R" (CharAt var49 660)))
(assert (= "," (CharAt var24 274)))
(assert (= "1" (CharAt var33 30)))
(assert (= "*" (CharAt var60 148)))
(assert (= "@" (CharAt var46 290)))
(assert (= "<" (CharAt var58 3)))
(assert (= "%" (CharAt var16 827)))
(assert (= "B" (CharAt var20 474)))
(assert (= "~" (CharAt var34 329)))
(assert (= "N" (CharAt var24 487)))
(assert (= "." (CharAt var52 114)))
(assert (= "I" (CharAt var57 686)))
(assert (= "M" (CharAt var6 212)))
(assert (= "|" (CharAt var5 662)))
(assert (= "," (CharAt var29 64)))
(assert (= "q" (CharAt var9 806)))
(assert (= "u" (CharAt var54 767)))
(assert (= "F" (CharAt var39 28)))
(assert (= "*" (CharAt var29 81)))
(assert (= "i" (CharAt var20 296)))
(assert (= "@" (CharAt var57 927)))
(assert (= "j" (CharAt var42 718)))
(assert (= "*" (CharAt var34 331)))
(assert (= "_" (CharAt var15 933)))
(assert (= "." (CharAt var29 264)))
(assert (= "_" (CharAt var44 558)))
(assert (= "9" (CharAt var22 947)))
(assert (= "-" (CharAt var23 675)))
(assert (= "#" (CharAt var49 44)))
(assert (= "t" (CharAt var40 643)))
(assert (= "P" (CharAt var39 251)))
(assert (= "B" (CharAt var16 893)))
(assert (= "!" (CharAt var12 515)))
(assert (= "<" (CharAt var17 425)))
(assert (= "p" (CharAt var49 74)))
(assert (= "." (CharAt var19 713)))
(assert (= "B" (CharAt var50 364)))
(assert (= "/" (CharAt var19 417)))
(assert (= "e" (CharAt var35 751)))
(assert (= "X" (CharAt var39 253)))
(assert (= "i" (CharAt var55 238)))
(assert (= "y" (CharAt var16 304)))
(assert (= "1" (CharAt var5 995)))
(assert (= "'" (CharAt var50 167)))
(assert (= "y" (CharAt var59 721)))
(assert (= "4" (CharAt var55 777)))
(assert (= "W" (CharAt var5 310)))
(assert (= "M" (CharAt var11 321)))
(assert (= "y" (CharAt var37 325)))
(assert (= "s" (CharAt var57 455)))
(assert (= "a" (CharAt var19 135)))
(assert (= "I" (CharAt var46 921)))
(assert (= "'" (CharAt var4 459)))
(assert (= "K" (CharAt var32 39)))
(assert (= "e" (CharAt var0 206)))
(assert (= "x" (CharAt var59 227)))
(assert (= "!" (CharAt var8 935)))
(assert (= "1" (CharAt var44 277)))
(assert (= "6" (CharAt var38 269)))
(assert (= "l" (CharAt var30 197)))
(assert (= "I" (CharAt var54 297)))
(assert (= "m" (CharAt var52 26)))
(assert (= "$" (CharAt var49 572)))
(assert (= "," (CharAt var44 901)))
(assert (= "7" (CharAt var40 254)))
(assert (= "G" (CharAt var14 192)))
(assert (= "N" (CharAt var43 468)))
(assert (= "[" (CharAt var22 929)))
(assert (= ">" (CharAt var5 490)))
(assert (= "O" (CharAt var60 909)))
(assert (= ")" (CharAt var49 900)))
(assert (= "1" (CharAt var14 184)))
(assert (= "D" (CharAt var53 731)))
(assert (= "K" (CharAt var56 362)))
(assert (= "/" (CharAt var27 690)))
(assert (= "~" (CharAt var15 273)))
(assert (= "g" (CharAt var3 638)))
(assert (= "X" (CharAt var1 586)))
(assert (= ">" (CharAt var46 870)))
(assert (= "H" (CharAt var36 343)))
(assert (= "}" (CharAt var58 736)))
(assert (= "K" (CharAt var8 134)))
(assert (= "f" (CharAt var44 618)))
(assert (= "d" (CharAt var54 2)))
(assert (= "x" (CharAt var48 533)))
(assert (= "o" (CharAt var18 858)))
(assert (= "9" (CharAt var36 0)))
(assert (= "9" (CharAt var49 611)))
(assert (= "c" (CharAt var21 334)))
(assert (= "<" (CharAt var22 103)))
(assert (= "c" (CharAt var36 713)))
(assert (= "0" (CharAt var55 123)))
(assert (= "f" (CharAt var55 176)))
(assert (= "k" (CharAt var25 683)))
(assert (= "S" (CharAt var23 333)))
(assert (= ":" (CharAt var53 507)))
(assert (= "Z" (CharAt var3 128)))
(assert (= "W" (CharAt var22 258)))
(assert (= ")" (CharAt var28 204)))
(assert (= "8" (CharAt var49 451)))
(assert (= "^" (CharAt var36 964)))
(assert (= "s" (CharAt var29 530)))
(assert (= "<" (CharAt var29 410)))
(assert (= "/" (CharAt var36 220)))
(assert (= "d" (CharAt var20 601)))
(assert (= "(" (CharAt var8 524)))
(assert (= "Q" (CharAt var24 457)))
(assert (= "7" (CharAt var19 815)))
(assert (= "9" (CharAt var55 837)))
(assert (= "o" (CharAt var60 715)))
(assert (= "<" (CharAt var58 615)))
(assert (= ":" (CharAt var42 800)))
(assert (= "I" (CharAt var15 906)))
(assert (= "p" (CharAt var24 61)))
(assert (= "o" (CharAt var3 541)))
(assert (= "h" (CharAt var30 243)))
(assert (= "=" (CharAt var37 58)))
(assert (= "F" (CharAt var58 172)))
(assert (= "+" (CharAt var6 729)))
(assert (= "l" (CharAt var34 856)))
(assert (= "`" (CharAt var30 562)))
(assert (= "]" (CharAt var19 121)))
(assert (= "g" (CharAt var45 60)))
(assert (= "d" (CharAt var11 757)))
(assert (= "L" (CharAt var29 382)))
(assert (= "Q" (CharAt var7 947)))
(assert (= "*" (CharAt var0 865)))
(assert (= "|" (CharAt var42 984)))
(assert (= "v" (CharAt var15 635)))
(assert (= "D" (CharAt var40 701)))
(assert (= "q" (CharAt var43 32)))
(assert (= "z" (CharAt var23 528)))
(assert (= "U" (CharAt var25 232)))
(assert (= "V" (CharAt var53 308)))
(assert (= "p" (CharAt var40 564)))
(assert (= "K" (CharAt var8 965)))
(assert (= "1" (CharAt var26 140)))
(assert (= ";" (CharAt var34 440)))
(assert (= "W" (CharAt var21 223)))
(assert (= "E" (CharAt var45 840)))
(assert (= "e" (CharAt var51 794)))
(assert (= "$" (CharAt var43 294)))
(assert (= "\"" (CharAt var1 735)))
(assert (= "f" (CharAt var49 765)))
(assert (= "i" (CharAt var56 354)))
(assert (= "1" (CharAt var51 726)))
(assert (= "I" (CharAt var54 171)))
(assert (= "w" (CharAt var16 685)))
(assert (= "M" (CharAt var30 293)))
(assert (= "x" (CharAt var10 208)))
(assert (= "o" (CharAt var8 201)))
(assert (= "r" (CharAt var53 960)))
(assert (= "g" (CharAt var25 157)))
(assert (= "*" (CharAt var36 532)))
(assert (= "z" (CharAt var13 143)))
(assert (= "%" (CharAt var14 468)))
(assert (= "p" (CharAt var38 168)))
(assert (= "t" (CharAt var0 913)))
(assert (= "j" (CharAt var32 911)))
(assert (= "K" (CharAt var49 743)))
(assert (= "T" (CharAt var45 182)))
(assert (= "G" (CharAt var22 663)))
(assert (= ":" (CharAt var22 859)))
(assert (= "~" (CharAt var42 488)))
(assert (= ")" (CharAt var57 903)))
(assert (= ")" (CharAt var19 2)))
(assert (= "p" (CharAt var32 308)))
(assert (= "P" (CharAt var46 509)))
(assert (= "S" (CharAt var53 1)))
(assert (= ">" (CharAt var33 297)))
(assert (= "|" (CharAt var8 885)))
(assert (= "b" (CharAt var35 137)))
(assert (= "N" (CharAt var17 71)))
(assert (= "?" (CharAt var43 627)))
(assert (= "y" (CharAt var13 712)))
(assert (= "#" (CharAt var33 163)))
(assert (= "d" (CharAt var27 163)))
(assert (= "_" (CharAt var12 151)))
(assert (= "C" (CharAt var42 498)))
(assert (= "{" (CharAt var31 824)))
(assert (= "_" (CharAt var32 324)))
(assert (= "_" (CharAt var57 378)))
(assert (= "@" (CharAt var36 401)))
(assert (= "-" (CharAt var46 88)))
(assert (= "v" (CharAt var43 471)))
(assert (= "+" (CharAt var56 590)))
(assert (= "~" (CharAt var28 903)))
(assert (= "q" (CharAt var10 914)))
(assert (= "a" (CharAt var60 335)))
(assert (= "\\" (CharAt var3 697)))
(assert (= "c" (CharAt var29 781)))
(assert (= "0" (CharAt var60 873)))
(assert (= "z" (CharAt var52 842)))
(assert (= "%" (CharAt var47 321)))
(assert (= "m" (CharAt var24 752)))
(assert (= "!" (CharAt var32 930)))
(assert (= "+" (CharAt var14 932)))
(assert (= "V" (CharAt var5 114)))
(assert (= "K" (CharAt var46 928)))
(assert (= "K" (CharAt var10 553)))
(assert (= "b" (CharAt var46 963)))
(assert (= "M" (CharAt var29 616)))
(assert (= "w" (CharAt var41 221)))
(assert (= "W" (CharAt var44 347)))
(assert (= "C" (CharAt var8 635)))
(assert (= "7" (CharAt var6 102)))
(assert (= "&" (CharAt var1 102)))
(assert (= "[" (CharAt var49 876)))
(assert (= "(" (CharAt var2 458)))
(assert (= "7" (CharAt var35 778)))
(assert (= "g" (CharAt var45 945)))
(assert (= "C" (CharAt var50 117)))
(assert (= "(" (CharAt var28 605)))
(assert (= "2" (CharAt var30 605)))
(assert (= "K" (CharAt var43 304)))
(assert (= "!" (CharAt var47 431)))
(assert (= "V" (CharAt var4 355)))
(assert (= "7" (CharAt var27 291)))
(assert (= "f" (CharAt var10 491)))
(assert (= "J" (CharAt var19 185)))
(assert (= "e" (CharAt var0 573)))
(assert (= "u" (CharAt var15 300)))
(assert (= "3" (CharAt var25 347)))
(assert (= "u" (CharAt var41 443)))
(assert (= "E" (CharAt var53 84)))
(assert (= "q" (CharAt var37 797)))
(assert (= "q" (CharAt var39 815)))
(assert (= "Y" (CharAt var29 700)))
(assert (= "!" (CharAt var27 164)))
(assert (= ")" (CharAt var11 851)))
(assert (= "m" (CharAt var33 288)))
(assert (= "T" (CharAt var20 676)))
(assert (= "M" (CharAt var7 159)))
(assert (= "h" (CharAt var50 26)))
(assert (= "Z" (CharAt var18 863)))
(assert (= "l" (CharAt var29 44)))
(assert (= "+" (CharAt var24 855)))
(assert (= "+" (CharAt var6 345)))
(assert (= "/" (CharAt var35 557)))
(assert (= "v" (CharAt var24 237)))
(assert (= "\"" (CharAt var41 150)))
(assert (= "O" (CharAt var28 762)))
(assert (= "6" (CharAt var50 887)))
(assert (= "f" (CharAt var26 833)))
(assert (= "<" (CharAt var21 265)))
(assert (= "$" (CharAt var38 522)))
(assert (= ";" (CharAt var2 795)))
(assert (= "[" (CharAt var1 911)))
(assert (= "." (CharAt var19 315)))
(assert (= "[" (CharAt var42 469)))
(assert (= "O" (CharAt var58 469)))
(assert (= "<" (CharAt var32 645)))
(assert (= "N" (CharAt var0 113)))
(assert (= "s" (CharAt var34 645)))
(assert (= "@" (CharAt var4 234)))
(assert (= "Z" (CharAt var3 855)))
(assert (= "-" (CharAt var33 740)))
(assert (= "y" (CharAt var60 878)))
(assert (= "U" (CharAt var18 792)))
(assert (= "Z" (CharAt var39 977)))
(assert (= "6" (CharAt var48 681)))
(assert (= "Y" (CharAt var13 893)))
(assert (= "J" (CharAt var11 193)))
(assert (= "o" (CharAt var29 176)))
(assert (= "I" (CharAt var37 490)))
(assert (= "%" (CharAt var51 650)))
(assert (= "Z" (CharAt var33 781)))
(assert (= "y" (CharAt var34 619)))
(assert (= "U" (CharAt var54 679)))
(assert (= "e" (CharAt var45 289)))
(assert (= ";" (CharAt var30 263)))
(assert (= "s" (CharAt var57 702)))
(assert (= "C" (CharAt var3 711)))
(assert (= "s" (CharAt var8 478)))
(assert (= "B" (CharAt var7 449)))
(assert (= "%" (CharAt var23 983)))
(assert (= "L" (CharAt var50 18)))
(assert (= "%" (CharAt var59 105)))
(assert (= ">" (CharAt var51 583)))
(assert (= "J" (CharAt var33 21)))
(assert (= "[" (CharAt var56 604)))
(assert (= "d" (CharAt var31 631)))
(assert (= "!" (CharAt var42 523)))
(assert (= "h" (CharAt var60 380)))
(assert (= "8" (CharAt var28 227)))
(assert (= "G" (CharAt var7 857)))
(assert (= "3" (CharAt var58 667)))
(assert (= "s" (CharAt var1 592)))
(assert (= "X" (CharAt var14 552)))
(assert (= "y" (CharAt var45 178)))
(assert (= "a" (CharAt var57 429)))
(assert (= "6" (CharAt var2 170)))
(assert (= "k" (CharAt var2 37)))
(assert (= "%" (CharAt var31 817)))
(assert (= ">" (CharAt var14 443)))
(assert (= "V" (CharAt var34 969)))
(assert (= "6" (CharAt var52 622)))
(assert (= "!" (CharAt var28 234)))
(assert (= "F" (CharAt var42 593)))
(assert (= "c" (CharAt var11 629)))
(assert (= "f" (CharAt var24 355)))
(assert (= "(" (CharAt var46 898)))
(assert (= "Q" (CharAt var34 860)))
(assert (= "B" (CharAt var24 257)))
(assert (= "+" (CharAt var11 156)))
(assert (= "@" (CharAt var14 391)))
(assert (= "?" (CharAt var23 576)))
(assert (= "{" (CharAt var19 45)))
(assert (= "8" (CharAt var4 34)))
(assert (= "6" (CharAt var52 628)))
(assert (= "Y" (CharAt var12 182)))
(assert (= "e" (CharAt var12 525)))
(assert (= "3" (CharAt var0 655)))
(assert (= "p" (CharAt var28 745)))
(assert (= "O" (CharAt var9 937)))
(assert (= "#" (CharAt var16 563)))
(assert (= "T" (CharAt var8 260)))
(assert (= "o" (CharAt var43 273)))
(assert (= "C" (CharAt var23 599)))
(assert (= "*" (CharAt var44 239)))
(assert (= "e" (CharAt var29 862)))
(assert (= "Z" (CharAt var33 537)))
(assert (= "D" (CharAt var54 280)))
(assert (= "]" (CharAt var10 472)))
(assert (= "g" (CharAt var7 827)))
(assert (= "f" (CharAt var40 550)))
(assert (= "y" (CharAt var20 563)))
(assert (= "h" (CharAt var60 600)))
(assert (= "p" (CharAt var31 121)))
(assert (= "v" (CharAt var32 237)))
(assert (= "B" (CharAt var41 800)))
(assert (= "3" (CharAt var12 382)))
(assert (= "D" (CharAt var31 662)))
(assert (= "j" (CharAt var0 939)))
(assert (= "T" (CharAt var27 420)))
(assert (= "'" (CharAt var48 585)))
(assert (= "\\" (CharAt var26 580)))
(assert (= "'" (CharAt var9 299)))
(assert (= "." (CharAt var35 475)))
(assert (= "Y" (CharAt var43 889)))
(assert (= "E" (CharAt var25 782)))
(assert (= "J" (CharAt var2 710)))
(assert (= "$" (CharAt var56 883)))
(assert (= "I" (CharAt var28 363)))
(assert (= "t" (CharAt var23 385)))
(assert (= "K" (CharAt var60 431)))
(assert (= "E" (CharAt var45 332)))
(assert (= "5" (CharAt var9 768)))
(assert (= "e" (CharAt var36 420)))
(assert (= "&" (CharAt var47 591)))
(assert (= "l" (CharAt var38 277)))
(assert (= "j" (CharAt var8 568)))
(assert (= ">" (CharAt var9 431)))
(assert (= "Y" (CharAt var13 517)))
(assert (= "X" (CharAt var48 125)))
(assert (= "m" (CharAt var55 97)))
(assert (= "m" (CharAt var6 439)))
(assert (= "y" (CharAt var24 25)))
(assert (= "k" (CharAt var60 698)))
(assert (= "/" (CharAt var52 583)))
(check-sat)